NAME : senseval3_subTrees1.gtsp.pid26384.gtsp.16106144.tour
COMMENT : Length = 16106144
COMMENT : Found by LKH [Keld Helsgaun] Tue Mar 13 16:36:08 2018
TYPE : TOUR
DIMENSION : 41
TOUR_SECTION
1
2
3
4
5
6
7
8
9
10
11
12
13
14
15
16
17
18
19
25
26
27
28
29
30
20
21
22
23
24
38
39
40
41
31
32
33
34
35
36
37
-1
EOF
